RT is False
Default write of storage_offers_DA.csv just to have a file (but constraint should be inactive)
Reading model...
...model read.
creating competitive generators file...
...competitive generators recorded.
Loading data...
.. day-ahead data with real-time VRE data read.
Compiling instance...
...instance created.
Creating Offer Mitigation (model will solve as dispatch if TRUE)...
Solving...

Welcome to IBM(R) ILOG(R) CPLEX(R) Interactive Optimizer 12.9.0.0
  with Simplex, Mixed Integer & Barrier Optimizers
5725-A06 5725-A29 5724-Y48 5724-Y49 5724-Y54 5724-Y55 5655-Y21
Copyright IBM Corp. 1988, 2019.  All Rights Reserved.

Type 'help' for a list of available commands.
Type 'help' followed by a command name for more
information on commands.

CPLEX> Logfile 'cplex.log' closed.
Logfile 'C:\Users\llavin\Desktop\test919\logs\tmpk40ceb7t.cplex.log' open.
CPLEX> New value for parallel optimization mode: -1
CPLEX> New value for mixed integer optimality gap tolerance: 0.01
CPLEX> New value for integrality tolerance: 1e-09
CPLEX> New value for feasibility tolerance: 0.01
CPLEX> New value for deterministic time limit in ticks: 75000
CPLEX> Problem 'C:\Users\llavin\Desktop\test919\logs\tmp98chewhe.pyomo.lp' read.
Read time = 0.06 sec. (3.04 ticks)
CPLEX> Problem name         : C:\Users\llavin\Desktop\test919\logs\tmp98chewhe.pyomo.lp
Objective sense      : Minimize
Variables            :   26081  [Nneg: 1,  Box: 21616,  Free: 4464]
Objective nonzeros   :    2496
Linear constraints   :   27515  [Less: 14006,  Greater: 4416,  Equal: 9093]
  Nonzeros           :   89267
  RHS nonzeros       :   12271

Variables            : Min LB: -5000.000        Max UB: 1000000.       
Objective nonzeros   : Min   : 15.73158         Max   : 124.0997       
Linear constraints   :
  Nonzeros           : Min   : 0.8500000        Max   : 3000.000       
  RHS nonzeros       : Min   : 0.008333333      Max   : 5000.000       
CPLEX> CPXPARAM_Parallel                                -1
CPXPARAM_Simplex_Tolerances_Feasibility          0.01
CPXPARAM_DetTimeLimit                            75000
CPXPARAM_MIP_Tolerances_MIPGap                   0.01
CPXPARAM_MIP_Tolerances_Integrality              1.0000000000000001e-09
Parallel mode: opportunistic, using up to 32 threads for concurrent optimization.
Tried aggregator 1 time.
LP Presolve eliminated 21353 rows and 15463 columns.
Aggregator did 771 substitutions.
Reduced LP has 5391 rows, 9847 columns, and 31810 nonzeros.
Presolve time = 0.05 sec. (30.44 ticks)
Symmetry aggregator did 5563 additional substitutions.

Iteration log . . .
Iteration:     1   Dual objective     =             0.000000
Perturbation started.
Iteration:   101   Dual objective     =             0.000000
Iteration:   331   Dual objective     =             1.211998
Iteration:   579   Dual objective     =             1.725953
Iteration:   827   Dual objective     =             1.867377
Iteration:  1023   Dual objective     =             1.980635
Iteration:  1302   Dual objective     =             2.032414
Iteration:  1557   Dual objective     =             2.063644
Iteration:  1774   Dual objective     =          5925.161592
Iteration:  1992   Dual objective     =         34352.239082
Iteration:  2176   Dual objective     =         58206.960839
Iteration:  2375   Dual objective     =        108935.878013
Iteration:  2629   Dual objective     =        121871.663348
Iteration:  3003   Dual objective     =        130593.841149
Removing perturbation.

Dual crossover.
  Dual:  Fixing 11 variables.
Using devex.

Primal simplex solved model.


Primal simplex - Optimal:  Objective =  1.3080117158e+05
Solution time =    0.17 sec.  Iterations = 1840 (1201)
Deterministic time = 81.78 ticks  (475.44 ticks/sec)

CPLEX> Solution written to file 'C:\Users\llavin\Desktop\test919\logs\tmp9lqj7yeu.cplex.sol'.
CPLEX> Exporting results... 
...storage offer mitigation file created
Converting model to MPEC...
...converted
NOTE: initial MIP solve with only storage competitive to get feasible solution
Solving...

Welcome to IBM(R) ILOG(R) CPLEX(R) Interactive Optimizer 12.9.0.0
  with Simplex, Mixed Integer & Barrier Optimizers
5725-A06 5725-A29 5724-Y48 5724-Y49 5724-Y54 5724-Y55 5655-Y21
Copyright IBM Corp. 1988, 2019.  All Rights Reserved.

Type 'help' for a list of available commands.
Type 'help' followed by a command name for more
information on commands.

CPLEX> Logfile 'cplex.log' closed.
Logfile 'C:\Users\llavin\Desktop\test919\logs\tmphzc1ze_m.cplex.log' open.
CPLEX> New value for parallel optimization mode: -1
CPLEX> New value for mixed integer optimality gap tolerance: 0.01
CPLEX> New value for integrality tolerance: 1e-09
CPLEX> New value for feasibility tolerance: 0.01
CPLEX> New value for deterministic time limit in ticks: 75000
CPLEX> Problem 'C:\Users\llavin\Desktop\test919\logs\tmpfscai3zz.pyomo.lp' read.
Read time = 0.23 sec. (14.78 ticks)
CPLEX> Problem name         : C:\Users\llavin\Desktop\test919\logs\tmpfscai3zz.pyomo.lp
Objective sense      : Maximize
Variables            :   53805  [Nneg: 1,  Box: 22000,  Free: 4464,
                                 Binary: 27340]
Objective nonzeros   :    8980
Linear constraints   :  123205  [Less: 41346,  Greater: 59096,  Equal: 22763]
  Nonzeros           :  291801
  RHS nonzeros       :   67423

Variables            : Min LB: -5000.000        Max UB: 1000000.       
Objective nonzeros   : Min   : 0.008333333      Max   : 826.3667       
Linear constraints   :
  Nonzeros           : Min   : 0.008333333      Max   : 1000000.       
  RHS nonzeros       : Min   : 0.008333333      Max   : 1000000.       
CPLEX> CPXPARAM_Parallel                                -1
CPXPARAM_Simplex_Tolerances_Feasibility          0.01
CPXPARAM_DetTimeLimit                            75000
CPXPARAM_MIP_Tolerances_MIPGap                   0.01
CPXPARAM_MIP_Tolerances_Integrality              1.0000000000000001e-09
Tried aggregator 3 times.
MIP Presolve eliminated 88614 rows and 18914 columns.
MIP Presolve added 3386 rows and 0 columns.
MIP Presolve modified 24833 coefficients.
Aggregator did 12991 substitutions.
Reduced MIP has 24986 rows, 21344 columns, and 71279 nonzeros.
Reduced MIP has 8422 binaries, 0 generals, 0 SOSs, and 0 indicators.
Presolve time = 0.31 sec. (173.56 ticks)
Probing fixed 419 vars, tightened 2863 bounds.
Probing time = 1.23 sec. (904.56 ticks)
Tried aggregator 2 times.
MIP Presolve eliminated 948 rows and 840 columns.
MIP Presolve modified 2192 coefficients.
Aggregator did 37 substitutions.
Reduced MIP has 24001 rows, 20467 columns, and 68422 nonzeros.
Reduced MIP has 8003 binaries, 0 generals, 0 SOSs, and 0 indicators.
Presolve time = 0.11 sec. (69.52 ticks)
Probing time = 0.03 sec. (15.97 ticks)
Clique table members: 6432.
MIP emphasis: balance optimality and feasibility.
MIP search method: dynamic search.
Parallel mode: opportunistic, using up to 32 threads.
Root relaxation solution time = 0.38 sec. (297.87 ticks)

        Nodes                                         Cuts/
   Node  Left     Objective  IInf  Best Integer    Best Bound    ItCnt     Gap

      0     0     3482.6137  1693                   3482.6137     6728         
*     0+    0                         3482.6137     3482.6137             0.00%
      0     0        cutoff           3482.6137     3482.6137     6728    0.00%
Elapsed time = 6.95 sec. (4839.88 ticks, tree = 0.01 MB, solutions = 1)

Root node processing (before b&c):
  Real time             =    6.97 sec. (4841.82 ticks)
Parallel b&c, 32 threads:
  Real time             =    0.00 sec. (0.00 ticks)
  Sync time (average)   =    0.00 sec.
  Wait time (average)   =    0.00 sec.
                          ------------
Total (root+branch&cut) =    6.97 sec. (4841.82 ticks)

Solution pool: 1 solution saved.

MIP - Integer optimal solution:  Objective =  3.4826137045e+03
Solution time =    7.00 sec.  Iterations = 6728  Nodes = 0
Deterministic time = 4841.98 ticks  (691.71 ticks/sec)

CPLEX> Incumbent solution written to file 'C:\Users\llavin\Desktop\test919\logs\tmpnmozfdro.cplex.sol'.
CPLEX> NOTE: no warmstart specified for MIP iteration, default behavior is true
NOTE: resolving with all competitive generators using storage-only solution to warmstart
Solving...

Welcome to IBM(R) ILOG(R) CPLEX(R) Interactive Optimizer 12.9.0.0
  with Simplex, Mixed Integer & Barrier Optimizers
5725-A06 5725-A29 5724-Y48 5724-Y49 5724-Y54 5724-Y55 5655-Y21
Copyright IBM Corp. 1988, 2019.  All Rights Reserved.

Type 'help' for a list of available commands.
Type 'help' followed by a command name for more
information on commands.

CPLEX> Logfile 'cplex.log' closed.
Logfile 'C:\Users\llavin\Desktop\test919\logs\tmplp0yz65u.cplex.log' open.
CPLEX> New value for parallel optimization mode: -1
CPLEX> New value for mixed integer optimality gap tolerance: 0.01
CPLEX> New value for integrality tolerance: 1e-09
CPLEX> New value for feasibility tolerance: 0.01
CPLEX> New value for deterministic time limit in ticks: 75000
CPLEX> Problem 'C:\Users\llavin\Desktop\test919\logs\tmp20a9e6rs.pyomo.lp' read.
Read time = 0.25 sec. (14.81 ticks)
CPLEX> MIP start file 'C:\Users\llavin\Desktop\test919\logs\tmpkg4epilr.cplex.mst' read.
CPLEX> Problem name         : C:\Users\llavin\Desktop\test919\logs\tmp20a9e6rs.pyomo.lp
Objective sense      : Maximize
Variables            :   54525  [Nneg: 1,  Box: 22720,  Free: 4464,
                                 Binary: 27340]
Objective nonzeros   :    9676
Linear constraints   :  123205  [Less: 41346,  Greater: 59096,  Equal: 22763]
  Nonzeros           :  291801
  RHS nonzeros       :   67423

Variables            : Min LB: -5000.000        Max UB: 1000000.       
Objective nonzeros   : Min   : 0.008333333      Max   : 780.1833       
Linear constraints   :
  Nonzeros           : Min   : 0.008333333      Max   : 1000000.       
  RHS nonzeros       : Min   : 0.008333333      Max   : 1000000.       
CPLEX> CPXPARAM_Parallel                                -1
CPXPARAM_Simplex_Tolerances_Feasibility          0.01
CPXPARAM_DetTimeLimit                            75000
CPXPARAM_MIP_Tolerances_MIPGap                   0.01
CPXPARAM_MIP_Tolerances_Integrality              1.0000000000000001e-09
Warning:  No solution found from 1 MIP starts.
Retaining values of one MIP start for possible repair.
Tried aggregator 3 times.
MIP Presolve eliminated 88614 rows and 19634 columns.
MIP Presolve added 3386 rows and 0 columns.
MIP Presolve modified 24833 coefficients.
Aggregator did 12991 substitutions.
Reduced MIP has 24986 rows, 21344 columns, and 71279 nonzeros.
Reduced MIP has 8422 binaries, 0 generals, 0 SOSs, and 0 indicators.
Presolve time = 0.30 sec. (173.92 ticks)
Probing fixed 419 vars, tightened 2863 bounds.
Probing time = 1.23 sec. (904.56 ticks)
Tried aggregator 2 times.
MIP Presolve eliminated 948 rows and 840 columns.
MIP Presolve modified 2192 coefficients.
Aggregator did 37 substitutions.
Reduced MIP has 24001 rows, 20467 columns, and 68422 nonzeros.
Reduced MIP has 8003 binaries, 0 generals, 0 SOSs, and 0 indicators.
Presolve time = 0.11 sec. (69.53 ticks)
Probing time = 0.03 sec. (15.97 ticks)
Clique table members: 6432.
MIP emphasis: balance optimality and feasibility.
MIP search method: dynamic search.
Parallel mode: opportunistic, using up to 32 threads.
Root relaxation solution time = 0.66 sec. (379.23 ticks)

        Nodes                                         Cuts/
   Node  Left     Objective  IInf  Best Integer    Best Bound    ItCnt     Gap

      0     0   181341.9440  1791                 181341.9440     7368         
      0     0   177798.5008   554                   Cuts: 986     7885         
      0     0   176891.6834   452                   Cuts: 324     8021         
      0     0   176718.9597   463                   Cuts: 134     8089         
      0     0   176616.4536   414                   Cuts: 103     8146         
      0     0   176615.3307   402                    Cuts: 77     8174         
      0     0   176614.3922   391                    Cuts: 69     8196         
      0     0   176613.4536   387                    Cuts: 62     8208         
      0     0   176613.4536   378                    Cuts: 54     8220         
      0     0   176613.4536   372                    Cuts: 46     8226         
Repair heuristic found nothing.
      0    26    infeasible                          Cuts: 48    10779         
Elapsed time = 12.81 sec. (7623.98 ticks, tree = 0.03 MB, solutions = 0)
    290    29    infeasible                       146745.8451    11488         
    749   239    infeasible                       146745.8451    25849         
   1303   373    35419.0027   269                 146745.8451    34437         
   1932   439    13229.6035   278                 146745.8451    39002         
   2606  1106    infeasible                       146745.8451    55941         
   3254  1438    infeasible                       144856.5279    64136         
   3907  1602    -4694.7292   127                 144856.5279    65914         
   4656  1809    10368.6531   208                 144856.5279    72093         
   5357  3553  -290384.2521   150                 144856.5279    92852         
*  8158+ 1633                        16743.0713   144856.5279           765.17%
Elapsed time = 31.92 sec. (10710.92 ticks, tree = 7.37 MB, solutions = 1)
*  9396  5293      integral     0    20032.4016   133512.1690    98995  566.48%
  10976  1603    65947.2244   273    20032.4016   133512.1690   111163  566.48%
  12313  2797    infeasible          20032.4016    54039.7817   140264  169.76%
  13767   895    20876.3958   105    20032.4016    54039.7817   163935  169.76%
  15948  1773        cutoff          20032.4016    34358.7055   183915   71.52%
  19162  2644    25090.6710   124    20032.4016    25725.9452   210904   28.42%
  22384  2204        cutoff          20032.4016    22892.9476   238126   14.28%
  25179  1952    20885.4846   116    20032.4016    22091.9505   257809   10.28%
  25699  1340    20659.9163   112    20032.4016    21849.5630   276777    9.07%
  26357  1019        cutoff          20032.4016    21728.0970   280835    8.46%
  27420   424    20283.1064   103    20032.4016    21728.0970   287898    8.46%
Elapsed time = 77.72 sec. (24631.68 ticks, tree = 4.44 MB, solutions = 3)
  27694   242    20604.7030   104    20032.4016    21728.0970   289956    8.46%

GUB cover cuts applied:  2
Clique cuts applied:  4
Cover cuts applied:  25
Implied bound cuts applied:  37
Flow cuts applied:  387
Mixed integer rounding cuts applied:  38
Gomory fractional cuts applied:  97

Root node processing (before b&c):
  Real time             =   11.34 sec. (7612.23 ticks)
Parallel b&c, 32 threads:
  Real time             =   66.83 sec. (18058.23 ticks)
  Sync time (average)   =    3.16 sec.
  Wait time (average)   =    0.24 sec.
                          ------------
Total (root+branch&cut) =   78.17 sec. (25670.46 ticks)

Solution pool: 3 solutions saved.

MIP - Integer optimal, tolerance (0.01/1e-06):  Objective =  2.0032401625e+04
Current MIP best bound =  2.0231979162e+04 (gap = 199.578, 1.00%)
Solution time =   78.22 sec.  Iterations = 290187  Nodes = 27705 (217)
Deterministic time = 25670.62 ticks  (328.19 ticks/sec)

CPLEX> Incumbent solution written to file 'C:\Users\llavin\Desktop\test919\logs\tmp_fyca4sv.cplex.sol'.
CPLEX> Exporting results... 
